#######################



#######################
Set parameter TimeLimit to value 500
Set parameter SoftMemLimit to value 125
Set parameter LogFile to value 1003-TimeLimit500-k16x240-2.log
Set parameter Seed to value 12
Using license file /opt/gurobi/gurobi.lic

Gurobi Optimizer version 10.0.3 build v10.0.3rc0 (linux64)
Copyright (c) 2023, Gurobi Optimization, LLC

Read MPS format model from file /miplib2010/k16x240.mps.bz2
Reading time = 0.06 seconds
k16x240: 256 rows, 480 columns, 960 nonzeros

CPU model: Intel(R) Xeon(R) E-2388G CPU @ 3.20GHz, instruction set [SSE2|AVX|AVX2|AVX512]
Thread count: 8 physical cores, 16 logical processors, using up to 16 threads

Optimize a model with 256 rows, 480 columns and 960 nonzeros
Model fingerprint: 0x4e80885f
Variable types: 240 continuous, 240 integer (240 binary)
Coefficient statistics:
  Matrix range     [1e+00, 1e+03]
  Objective range  [1e+00, 1e+03]
  Bounds range     [1e+00, 1e+03]
  RHS range        [4e+00, 4e+02]
Found heuristic solution: objective 19617.000000
Presolve time: 0.00s
Presolved: 256 rows, 480 columns, 960 nonzeros
Variable types: 240 continuous, 240 integer (240 binary)

Root relaxation: objective 2.769838e+03, 51 iterations, 0.00 seconds (0.00 work units)

    Nodes    |    Current Node    |     Objective Bounds      |     Work
 Expl Unexpl |  Obj  Depth IntInf | Incumbent    BestBd   Gap | It/Node Time

     0     0 2769.83800    0   14 19617.0000 2769.83800  85.9%     -    0s
H    0     0                    11359.000000 2769.83800  75.6%     -    0s
H    0     0                    11195.000000 2769.83800  75.3%     -    0s
H    0     0                    11074.000000 8084.69631  27.0%     -    0s
     0     0 8084.69631    0   26 11074.0000 8084.69631  27.0%     -    0s
H    0     0                    10916.000000 8084.69631  25.9%     -    0s
     0     0 8528.16906    0   24 10916.0000 8528.16906  21.9%     -    0s
H    0     0                    10896.000000 8539.15185  21.6%     -    0s
     0     0 8539.15185    0   34 10896.0000 8539.15185  21.6%     -    0s
     0     0 8548.03675    0   29 10896.0000 8548.03675  21.5%     -    0s
H    0     0                    10861.000000 8548.03675  21.3%     -    0s
     0     0 8733.37944    0   34 10861.0000 8733.37944  19.6%     -    0s
H    0     0                    10717.000000 8733.37944  18.5%     -    0s
     0     0 8793.89382    0   28 10717.0000 8793.89382  17.9%     -    0s
     0     0 8813.48501    0   28 10717.0000 8813.48501  17.8%     -    0s
     0     0 8817.87868    0   34 10717.0000 8817.87868  17.7%     -    0s
     0     0 8881.72228    0   39 10717.0000 8881.72228  17.1%     -    0s
H    0     0                    10683.000000 8921.29621  16.5%     -    0s
     0     0 8921.29621    0   35 10683.0000 8921.29621  16.5%     -    0s
     0     0 8928.29629    0   39 10683.0000 8928.29629  16.4%     -    0s
     0     0 8931.76458    0   34 10683.0000 8931.76458  16.4%     -    0s
     0     0 9025.81218    0   38 10683.0000 9025.81218  15.5%     -    0s
     0     0 9047.42426    0   40 10683.0000 9047.42426  15.3%     -    0s
     0     0 9060.06600    0   45 10683.0000 9060.06600  15.2%     -    0s
     0     0 9063.51764    0   42 10683.0000 9063.51764  15.2%     -    0s
     0     0 9084.00791    0   37 10683.0000 9084.00791  15.0%     -    0s
     0     0 9084.00791    0   37 10683.0000 9084.00791  15.0%     -    0s
     0     2 9086.99605    0   37 10683.0000 9086.99605  14.9%     -    0s
H   36    40                    10681.000000 9281.91495  13.1%  53.8    0s
H   64    80                    10678.000000 9281.91495  13.1%  42.3    0s
H  697   647                    10674.000000 9301.65959  12.9%  17.7    0s
 37341 13597 10572.6002   38   15 10674.0000 10052.9803  5.82%  27.9    5s
 75017 18433 10522.0354   35   18 10674.0000 10212.0397  4.33%  29.1   10s
 120693 14656 10532.5542   33   16 10674.0000 10388.9986  2.67%  29.7   15s

Cutting planes:
  Lift-and-project: 22
  Cover: 74
  Implied bound: 34
  MIR: 155
  Flow cover: 302
  Flow path: 37
  Inf proof: 2
  Zero half: 12
  Network: 50

Explored 155687 nodes (4441381 simplex iterations) in 18.36 seconds (21.14 work units)
Thread count was 16 (of 16 available processors)

Solution count 10: 10674 10678 10681 ... 11195

Optimal solution found (tolerance 1.00e-04)
Best objective 1.067400000000e+04, best bound 1.067400000000e+04, gap 0.0000%
